&CONTROL
  calculation = 'bands'
  nstep = 1000
  tprnfor = True
  outdir = './tmp'
  prefix = 'pwscf'
  wf_collect = True
  restart_mode = 'from_scratch'
  pseudo_dir = '/home/efefer/pseudo'
  verbosity = 'high'
/

&SYSTEM
  ibrav = 0
  nat = 2
  ntyp = 1
  ecutwfc = 30.0
  ecutrho = 120.0
  occupations = 'smearing'
  degauss = 0.01
  smearing = 'mv'
/

&ELECTRONS
  electron_maxstep = 150
  conv_thr = 1e-06
  mixing_mode = 'plain'
  mixing_beta = 0.7
  mixing_ndim = 8
  diagonalization = 'david'
/

ATOMIC_SPECIES
   Si    28.09  Si.pbe-n-kjpaw_psl.0.1.UPF

ATOMIC_POSITIONS angstrom
   Si       0.0000000000       0.0000000000       0.0000000000
   Si       1.3575000000       1.3575000000       1.3575000000

K_POINTS crystal
100
0.000000000 0.000000000 0.000000000 1.000000000
0.033333333 0.000000000 0.033333333 1.000000000
0.066666667 0.000000000 0.066666667 1.000000000
0.100000000 0.000000000 0.100000000 1.000000000
0.133333333 0.000000000 0.133333333 1.000000000
0.166666667 0.000000000 0.166666667 1.000000000
0.200000000 0.000000000 0.200000000 1.000000000
0.233333333 0.000000000 0.233333333 1.000000000
0.266666667 0.000000000 0.266666667 1.000000000
0.300000000 0.000000000 0.300000000 1.000000000
0.333333333 0.000000000 0.333333333 1.000000000
0.366666667 0.000000000 0.366666667 1.000000000
0.400000000 0.000000000 0.400000000 1.000000000
0.433333333 0.000000000 0.433333333 1.000000000
0.466666667 0.000000000 0.466666667 1.000000000
0.500000000 0.000000000 0.500000000 1.000000000
0.500000000 0.035714286 0.535714286 1.000000000
0.500000000 0.071428571 0.571428571 1.000000000
0.500000000 0.107142857 0.607142857 1.000000000
0.500000000 0.142857143 0.642857143 1.000000000
0.500000000 0.178571429 0.678571429 1.000000000
0.500000000 0.214285714 0.714285714 1.000000000
0.500000000 0.250000000 0.750000000 1.000000000
0.475000000 0.275000000 0.750000000 1.000000000
0.450000000 0.300000000 0.750000000 1.000000000
0.425000000 0.325000000 0.750000000 1.000000000
0.400000000 0.350000000 0.750000000 1.000000000
0.375000000 0.375000000 0.750000000 1.000000000
0.352941176 0.352941176 0.705882353 1.000000000
0.330882353 0.330882353 0.661764706 1.000000000
0.308823529 0.308823529 0.617647059 1.000000000
0.286764706 0.286764706 0.573529412 1.000000000
0.264705882 0.264705882 0.529411765 1.000000000
0.242647059 0.242647059 0.485294118 1.000000000
0.220588235 0.220588235 0.441176471 1.000000000
0.198529412 0.198529412 0.397058824 1.000000000
0.176470588 0.176470588 0.352941176 1.000000000
0.154411765 0.154411765 0.308823529 1.000000000
0.132352941 0.132352941 0.264705882 1.000000000
0.110294118 0.110294118 0.220588235 1.000000000
0.088235294 0.088235294 0.176470588 1.000000000
0.066176471 0.066176471 0.132352941 1.000000000
0.044117647 0.044117647 0.088235294 1.000000000
0.022058824 0.022058824 0.044117647 1.000000000
0.000000000 0.000000000 0.000000000 1.000000000
0.035714286 0.035714286 0.035714286 1.000000000
0.071428571 0.071428571 0.071428571 1.000000000
0.107142857 0.107142857 0.107142857 1.000000000
0.142857143 0.142857143 0.142857143 1.000000000
0.178571429 0.178571429 0.178571429 1.000000000
0.214285714 0.214285714 0.214285714 1.000000000
0.250000000 0.250000000 0.250000000 1.000000000
0.285714286 0.285714286 0.285714286 1.000000000
0.321428571 0.321428571 0.321428571 1.000000000
0.357142857 0.357142857 0.357142857 1.000000000
0.392857143 0.392857143 0.392857143 1.000000000
0.428571429 0.428571429 0.428571429 1.000000000
0.464285714 0.464285714 0.464285714 1.000000000
0.500000000 0.500000000 0.500000000 1.000000000
0.512500000 0.475000000 0.512500000 1.000000000
0.525000000 0.450000000 0.525000000 1.000000000
0.537500000 0.425000000 0.537500000 1.000000000
0.550000000 0.400000000 0.550000000 1.000000000
0.562500000 0.375000000 0.562500000 1.000000000
0.575000000 0.350000000 0.575000000 1.000000000
0.587500000 0.325000000 0.587500000 1.000000000
0.600000000 0.300000000 0.600000000 1.000000000
0.612500000 0.275000000 0.612500000 1.000000000
0.625000000 0.250000000 0.625000000 1.000000000
0.604166667 0.250000000 0.645833333 1.000000000
0.583333333 0.250000000 0.666666667 1.000000000
0.562500000 0.250000000 0.687500000 1.000000000
0.541666667 0.250000000 0.708333333 1.000000000
0.520833333 0.250000000 0.729166667 1.000000000
0.500000000 0.250000000 0.750000000 1.000000000
0.500000000 0.269230769 0.730769231 1.000000000
0.500000000 0.288461538 0.711538462 1.000000000
0.500000000 0.307692308 0.692307692 1.000000000
0.500000000 0.326923077 0.673076923 1.000000000
0.500000000 0.346153846 0.653846154 1.000000000
0.500000000 0.365384615 0.634615385 1.000000000
0.500000000 0.384615385 0.615384615 1.000000000
0.500000000 0.403846154 0.596153846 1.000000000
0.500000000 0.423076923 0.576923077 1.000000000
0.500000000 0.442307692 0.557692308 1.000000000
0.500000000 0.461538462 0.538461538 1.000000000
0.500000000 0.480769231 0.519230769 1.000000000
0.500000000 0.500000000 0.500000000 1.000000000
0.489583333 0.489583333 0.520833333 1.000000000
0.479166667 0.479166667 0.541666667 1.000000000
0.468750000 0.468750000 0.562500000 1.000000000
0.458333333 0.458333333 0.583333333 1.000000000
0.447916667 0.447916667 0.604166667 1.000000000
0.437500000 0.437500000 0.625000000 1.000000000
0.427083333 0.427083333 0.645833333 1.000000000
0.416666667 0.416666667 0.666666667 1.000000000
0.406250000 0.406250000 0.687500000 1.000000000
0.395833333 0.395833333 0.708333333 1.000000000
0.385416667 0.385416667 0.729166667 1.000000000
0.375000000 0.375000000 0.750000000 1.000000000

CELL_PARAMETERS bohr
      0.0000000000       5.1306064316       5.1306064316
      5.1306064316       0.0000000000       5.1306064316
      5.1306064316       5.1306064316       0.0000000000

