&CONTROL
  calculation = 'scf'
  outdir = './tmp'
  pseudo_dir = '/home/efefer/pseudo/SSSP_eff_PBE'
  nstep = 1000
  tprnfor = True  
/

&SYSTEM
  ibrav = 0
  nat = 2
  ntyp = 1
  ecutwfc = 44.0
  ecutrho = 175.0
/

&ELECTRONS
  electron_maxstep = 150
  conv_thr = 1e-06
  mixing_mode = 'plain'
  mixing_beta = 0.7
  mixing_ndim = 8
  diagonalization = 'david'
/

ATOMIC_SPECIES
   Si    28.09  Si.pbe-n-rrkjus_psl.1.0.0.UPF

ATOMIC_POSITIONS angstrom
   Si       0.0000000000       0.0000000000       0.0000000000
   Si       1.3575000000       1.3575000000       1.3575000000

K_POINTS automatic
8 8 8 0 0 0

CELL_PARAMETERS bohr
      0.0000000000       5.1306064316       5.1306064316
      5.1306064316       0.0000000000       5.1306064316
      5.1306064316       5.1306064316       0.0000000000

